(set-logic UFDT)
(declare-datatypes ((nat 0)) (((zero) (s (s0 nat)))))
(declare-fun add (nat nat) nat)
(non-erasing add 2)
(injective add (true true))
(declare-fun leq (nat nat) Bool)
(assert (forall ((y nat)) (= (add zero y) y)))
(assert (forall ((x nat) (y nat)) (= (add (s x) y) (s (add x y)))))
(assert (forall ((y nat)) (leq zero y)))
(assert (forall ((x nat)) (not (leq (s x) zero))))
(assert (forall ((x nat) (y nat)) (= (leq (s x) (s y)) (leq x y))))
(assert (not (forall ((v0 nat) (v1 nat) (v2 nat) (v3 nat) (v4 nat) (v5 nat) (v6 nat) (v7 nat) (v8 nat) (v9 nat)) (= (s (add (s (add (s (s (add (s (add (add (s v3) (s v4)) (add (s v0) (s v9)))) (s v4)))) (add (s (add v6 (s v7))) (s (s (s (add (s (s v2)) v1))))))) (s (add v8 (s v5))))) (add v7 (add (add (s (s (s (add (add (add (s v1) v4) (s (s v2))) (add (s (s (add (s v9) (s (add (add (s (s (s (s (s v8))))) (s v6)) (s (s v4))))))) v0))))) (s v3)) v5))))))
(check-sat)
